c description: Random 3-CNF over 21 variables and 89 clauses
c generator: CNFgen (0.9.2)
c copyright: (C) 2012-2022 Massimo Lauria <massimo.lauria@uniroma1.it>
c url: https://massimolauria.net/cnfgen
c command line: cnfgen --output CNF_4.28/21_bit_89_570.cnf randkcnf 3 21 89
c
p cnf 21 89
-5 -13 -21 0
-6 12 20 0
1 2 -15 0
11 17 -19 0
-4 -9 19 0
-7 -19 -21 0
-1 -5 17 0
-4 14 -19 0
2 11 -18 0
7 -13 -14 0
-7 17 -20 0
1 2 20 0
2 -4 -19 0
-3 -11 -19 0
-12 -13 -19 0
-8 -15 18 0
-9 -10 20 0
-7 -11 18 0
6 -10 -18 0
12 13 19 0
-4 6 -7 0
7 16 18 0
9 15 20 0
-6 16 17 0
-3 6 21 0
8 -14 17 0
-14 15 17 0
-2 -4 -16 0
1 2 -9 0
-6 14 -21 0
2 -5 -12 0
-4 -15 16 0
-8 12 -13 0
3 8 -15 0
3 7 9 0
2 -8 -13 0
1 2 16 0
-4 -18 20 0
6 12 -18 0
-3 -6 8 0
-4 6 15 0
7 8 -11 0
-5 10 20 0
3 -4 -18 0
-1 3 15 0
8 13 -20 0
-4 9 -10 0
3 -11 18 0
-2 14 -20 0
-10 17 -20 0
-4 -12 14 0
-10 -16 19 0
9 12 -21 0
4 -8 17 0
-2 5 13 0
1 8 -12 0
6 16 19 0
-1 -11 -21 0
-13 19 -21 0
-8 -19 -21 0
-1 -9 -12 0
-6 9 -10 0
2 -13 -20 0
2 -10 -21 0
-3 17 -19 0
-1 -16 19 0
-6 14 -17 0
-13 14 18 0
3 5 -6 0
6 -9 19 0
14 -16 20 0
-8 16 -21 0
4 10 11 0
3 -15 18 0
-15 -16 20 0
1 8 19 0
6 -10 15 0
5 -8 -17 0
2 12 -18 0
-4 17 19 0
15 16 -19 0
1 3 4 0
5 12 -16 0
1 -7 8 0
4 -8 -15 0
-2 -3 -17 0
18 19 -21 0
5 8 11 0
14 15 17 0
